%chk=chiral_with_trees.chk
# opt hf/3-21g geom=connectivity

Title Card Required

0 1
 C                  0.82244200   -0.54003900   -0.28950100
 H                  0.88267000   -0.28344000   -1.34362100
 C                  1.58322700   -1.86600100   -0.07334300
 H                  1.56386000   -2.14233900    0.97659100
 H                  1.13197300   -2.67058300   -0.64432600
 H                  2.61932600   -1.77144900   -0.38040100
 C                  1.48591500    0.59792100    0.53626400
 H                  0.96954600    0.70234700    1.48561000
 C                  1.52336800    1.95707900   -0.19390900
 H                  2.09449100    1.87133400   -1.11249500
 H                  0.52953100    2.30183200   -0.44737700
 H                  1.99556300    2.71241600    0.42561900
 C                 -0.66412000   -0.75612200    0.07480900
 H                 -0.72488400   -1.03402400    1.12436900
 H                 -1.03632700   -1.60091400   -0.49919300
 C                 -1.59298500    0.44587300   -0.18043800
 H                 -1.30222400    1.27855900    0.44890900
 H                 -1.49344500    0.76689300   -1.21282900
 C                 -3.06522200    0.08832000    0.10573700
 H                 -3.18763600   -0.22392000    1.13765100
 H                 -3.71471400    0.93902600   -0.06939000
 H                 -3.39187300   -0.72464200   -0.53408800
 Cl                 3.14402275    0.14190715    0.91087055

 1 2 1.0 3 1.0 7 1.0 13 1.0
 2
 3 4 1.0 5 1.0 6 1.0
 4
 5
 6
 7 8 1.0 9 1.0 23 1.0
 8
 9 10 1.0 11 1.0 12 1.0
 10
 11
 12
 13 14 1.0 15 1.0 16 1.0
 14
 15
 16 17 1.0 18 1.0 19 1.0
 17
 18
 19 20 1.0 21 1.0 22 1.0
 20
 21
 22
 23

